NAME : compression
TYPE : TSP
DIMENSION : 50
EDGE_WEIGHT_TYPE : EUC_2D
NODE_COORD_SECTION
1 788360 170109
2 717002 275597
3 432223 133143
4 915801 122727
5 945615 920278
6 250753 710084
7 832289 448780
8 222014 566318
9 447784 837903
10 624495 303761
11 201431 481813
12 970625 477858
13 498445 938544
14 717932 248459
15 423362 814990
16 693003 192605
17 76260 531122
18 535738 121519
19 734440 209522
20 415606 809193
21 291560 166061
22 752617 436957
23 444081 117899
24 490169 984556
25 746113 216357
26 905841 81091
27 331109 630683
28 394319 823152
29 865709 460942
30 132558 121708
31 343267 163328
32 349719 239206
33 414278 147098
34 615606 270148
35 856899 447886
36 470135 238162
37 272109 688981
38 279727 629106
39 850345 670893
40 978372 456047
41 450305 917055
42 478137 74118
43 268530 714678
44 37949 934254
45 306462 655036
46 169569 470797
47 608247 356840
48 449418 209061
49 810426 157065
50 417386 861995
EOF
